unsat
(obs-2-3 obs-2-4 obs-3-3 obs-4-3 obs-4-13 obs-5-3 obs-5-6 obs-5-7 obs-5-8 obs-5-9 obs-5-10 obs-5-11 obs-5-12 obs-5-13 obs-6-3 obs-7-3 obs-8-3 obs-8-4 obs-8-5 obs-8-6 obs-8-7 obs-8-8 obs-8-9 obs-9-9 obs-9-10 obs-9-11 obs-9-12 obs-11-3 obs-11-4 obs-11-5 obs-11-6 obs-12-3 obs-12-6 obs-13-6 a3_5$2@ a7_9$0@ a7_11$2@ a9_3$3@ a9_4$0@)
(error "line 870458 column 10: model is not available")
